(set-logic HORN)
(set-info :source |
    Benchmark: C_VC
    Output by Princess (http://www.philipp.ruemmer.org/princess.shtml)
|)
(set-info :status unsat)
;===============================================================================
; Encoding of Heap sorts and operations
;-------------------------------------------------------------------------------
(define-sort Addr() Int)
(declare-datatypes ((AddrRange 0))
                   (((AddrRange (AddrRangeStart Addr) (AddrRangeSize Int)))))

(declare-datatypes ((HeapObject 0) (TSLL 0))
                   (((O_Int (getInt Int)) (O_UInt (getUInt Int)) (O_Addr (getAddr Addr)) (O_AddrRange (getAddrRange AddrRange)) (O_TSLL (getTSLL TSLL)) (defObj))
                   ((TSLL (|TSLL::next| Addr) (|TSLL::opt| Addr) (|TSLL::data| Int)))))
(declare-datatypes ((BatchAllocResHeap 0) (AllocResHeap 0) (Heap 0))
                   (((BatchAllocResHeap   (newBatchHeap Heap) (newAddrRange AddrRange)))
                   ((AllocResHeap   (newHeap Heap) (newAddr Addr)))
                    ((HeapCtor (HeapSize Int)
                               (HeapContents (Array Addr HeapObject))))))
(define-fun nullAddr  () Addr 0)
(define-fun valid     ((h Heap) (p Addr)) Bool
  (and (>= (HeapSize h) p) (> p 0)))
(define-fun emptyHeap () Heap (
  HeapCtor 0 (( as const (Array Addr HeapObject)) defObj)))
(define-fun read ((h Heap) (p Addr)) HeapObject
  (ite (valid h p)
       (select (HeapContents h) p)
       defObj))
(define-fun write ((h Heap) (p Addr) (o HeapObject)) Heap
  (ite (valid h p)
       (HeapCtor (HeapSize h) (store (HeapContents h) p o))
       h))
(define-fun alloc   ((h Heap) (o HeapObject)) AllocResHeap
  (AllocResHeap (HeapCtor (+ 1 (HeapSize h))
                    (store (HeapContents h) (+ 1 (HeapSize h)) o))
          (+ 1 (HeapSize h))))

;===============================================================================
(declare-fun inv_main1007_12 (Heap Addr Addr) Bool)
(declare-fun inv_main996_2 (Heap) Bool)
(declare-fun inv_main999_2 (Heap Addr Addr) Bool)
(declare-fun inv_main_16 (Heap Addr Addr) Bool)
(declare-fun inv_main_23 (Heap Addr Addr) Bool)
(assert (forall ((var0 Heap)) (or (not (= var0 emptyHeap)) (inv_main996_2 var0))))
(assert (forall ((var0 Addr) (var1 Addr) (var2 Heap)) (or (not (and (inv_main_16 var2 var1 var0) (= var0 nullAddr))) (inv_main_23 var2 var1 var1))))
(assert (forall ((var0 Heap) (var1 Addr) (var2 Addr) (var3 Heap) (var4 Addr) (var5 Addr) (var6 Addr) (var7 Addr) (var8 Addr) (var9 Heap) (var10 Heap) (var11 Int) (var12 Addr) (var13 Addr) (var14 Heap)) (or (not (and (inv_main_23 var14 var13 var12) (and (and (and (and (= var11 2) (and (and (and (= var10 var9) (= var8 var7)) (= var6 var5)) (= var11 (|TSLL::data| (getTSLL (read var9 var7)))))) (and (and (and (and (= var9 var14) (= var7 var12)) (= var4 var12)) (= var5 (|TSLL::next| (getTSLL (read var14 var12))))) (not (= var12 nullAddr)))) (and (and (= var3 (write var10 (|TSLL::opt| (getTSLL (read var10 var8))) defObj)) (= var2 var8)) (= var1 var6))) (= var0 (write var3 var2 defObj))))) (inv_main_23 var0 var2 var1))))
(assert (forall ((var0 Heap) (var1 Addr) (var2 Addr) (var3 Addr) (var4 Addr) (var5 Addr) (var6 Heap) (var7 Heap) (var8 Int) (var9 Addr) (var10 Addr) (var11 Heap)) (or (not (and (inv_main_23 var11 var10 var9) (and (and (and (not (= var8 2)) (and (and (and (= var7 var6) (= var5 var4)) (= var3 var2)) (= var8 (|TSLL::data| (getTSLL (read var6 var4)))))) (and (and (and (and (= var6 var11) (= var4 var9)) (= var1 var9)) (= var2 (|TSLL::next| (getTSLL (read var11 var9))))) (not (= var9 nullAddr)))) (= var0 (write var7 var5 defObj))))) (inv_main_23 var0 var5 var3))))
(assert (forall ((var0 Int) (var1 Addr) (var2 Addr) (var3 Heap)) (or (not (and (inv_main999_2 var3 var2 var1) (= var0 0))) (inv_main_16 var3 var2 var2))))
(assert (forall ((var0 Addr) (var1 Addr) (var2 Addr) (var3 Heap) (var4 Addr) (var5 Addr) (var6 Heap) (var7 Int) (var8 Int) (var9 Addr) (var10 Addr) (var11 Addr) (var12 Addr) (var13 Addr) (var14 Heap) (var15 Heap) (var16 Addr) (var17 Addr) (var18 Heap)) (or (not (and (inv_main_16 var18 var17 var16) (and (and (and (and (= var15 var14) (= var13 var12)) (= var11 var10)) (= var9 (|TSLL::next| (getTSLL (read var14 var10))))) (and (and (and (not (= var8 0)) (and (and (= var7 2) (and (and (and (= var6 var18) (= var5 var17)) (= var4 var16)) (= var7 (|TSLL::data| (getTSLL (read var18 var16)))))) (and (and (and (= var3 var6) (= var2 var5)) (= var1 var4)) (= var0 (|TSLL::opt| (getTSLL (read var6 var4))))))) (and (and (and (= var14 var3) (= var12 var2)) (= var10 var1)) (or (and (= var0 var1) (= var8 1)) (and (not (= var0 var1)) (= var8 0))))) (not (= var16 nullAddr)))))) (inv_main_16 var15 var13 var9))))
(assert (forall ((var0 Heap) (var1 Addr) (var2 Addr) (var3 Heap) (var4 Addr) (var5 Addr) (var6 Heap) (var7 Int) (var8 Addr) (var9 Addr) (var10 Addr) (var11 TSLL) (var12 Heap) (var13 Addr) (var14 Addr) (var15 Addr) (var16 Addr) (var17 Addr) (var18 Heap) (var19 Heap) (var20 Int) (var21 Addr) (var22 Addr) (var23 Addr) (var24 Addr) (var25 Addr) (var26 TSLL) (var27 Heap) (var28 Heap) (var29 Addr) (var30 Addr) (var31 Heap)) (or (not (and (inv_main999_2 var31 var30 var29) (and (and (and (and (and (and (and (= var28 (newHeap (alloc var27 (O_TSLL var26)))) (= var25 var24)) (= var23 var22)) (= var21 (newAddr (alloc var27 (O_TSLL var26))))) (and (not (= var20 0)) (and (and (and (and (and (and (= var19 var18) (= var17 var16)) (= var15 var14)) (= var13 (|TSLL::next| (getTSLL (read var18 var14))))) (and (and (and (and (= var12 (newHeap (alloc var31 (O_TSLL var11)))) (= var10 var30)) (= var9 var29)) (= var8 (newAddr (alloc var31 (O_TSLL var11))))) (not (= var7 0)))) (and (and (= var18 (write var12 var9 (O_TSLL (TSLL var8 (|TSLL::opt| (getTSLL (read var12 var9))) (|TSLL::data| (getTSLL (read var12 var9))))))) (= var16 var10)) (= var14 var9))) (and (and (= var6 (write var19 var13 (O_TSLL (TSLL nullAddr (|TSLL::opt| (getTSLL (read var19 var13))) (|TSLL::data| (getTSLL (read var19 var13))))))) (= var5 var17)) (= var4 var13))))) (and (and (= var27 (write var6 var4 (O_TSLL (TSLL (|TSLL::next| (getTSLL (read var6 var4))) (|TSLL::opt| (getTSLL (read var6 var4))) 2)))) (= var24 var5)) (= var22 var4))) (and (and (= var3 (write var28 var23 (O_TSLL (TSLL (|TSLL::next| (getTSLL (read var28 var23))) var21 (|TSLL::data| (getTSLL (read var28 var23))))))) (= var2 var25)) (= var1 var23))) (= var0 (write var3 (|TSLL::opt| (getTSLL (read var3 var1))) (O_TSLL (TSLL nullAddr (|TSLL::opt| (getTSLL (read var3 (|TSLL::opt| (getTSLL (read var3 var1)))))) (|TSLL::data| (getTSLL (read var3 (|TSLL::opt| (getTSLL (read var3 var1))))))))))))) (inv_main999_2 var0 var2 var1))))
(assert (forall ((var0 Heap) (var1 Addr) (var2 Addr) (var3 Heap) (var4 Addr) (var5 Addr) (var6 Heap) (var7 Int) (var8 Addr) (var9 Addr) (var10 Addr) (var11 TSLL) (var12 Heap) (var13 Addr) (var14 Addr) (var15 Addr) (var16 Addr) (var17 Addr) (var18 Heap) (var19 Heap) (var20 Int) (var21 Int) (var22 Addr) (var23 Addr) (var24 Heap)) (or (not (and (inv_main999_2 var24 var23 var22) (and (and (and (not (= var21 0)) (and (= var20 0) (and (and (and (and (and (and (= var19 var18) (= var17 var16)) (= var15 var14)) (= var13 (|TSLL::next| (getTSLL (read var18 var14))))) (and (and (and (and (= var12 (newHeap (alloc var24 (O_TSLL var11)))) (= var10 var23)) (= var9 var22)) (= var8 (newAddr (alloc var24 (O_TSLL var11))))) (not (= var7 0)))) (and (and (= var18 (write var12 var9 (O_TSLL (TSLL var8 (|TSLL::opt| (getTSLL (read var12 var9))) (|TSLL::data| (getTSLL (read var12 var9))))))) (= var16 var10)) (= var14 var9))) (and (and (= var6 (write var19 var13 (O_TSLL (TSLL nullAddr (|TSLL::opt| (getTSLL (read var19 var13))) (|TSLL::data| (getTSLL (read var19 var13))))))) (= var5 var17)) (= var4 var13))))) (and (and (= var3 (write var6 var4 (O_TSLL (TSLL (|TSLL::next| (getTSLL (read var6 var4))) (|TSLL::opt| (getTSLL (read var6 var4))) 1)))) (= var2 var5)) (= var1 var4))) (= var0 (write var3 var1 (O_TSLL (TSLL (|TSLL::next| (getTSLL (read var3 var1))) var1 (|TSLL::data| (getTSLL (read var3 var1)))))))))) (inv_main999_2 var0 var2 var1))))
(assert (forall ((var0 Heap) (var1 Addr) (var2 Addr) (var3 Heap) (var4 Addr) (var5 Addr) (var6 Heap) (var7 Int) (var8 Addr) (var9 Addr) (var10 Addr) (var11 TSLL) (var12 Heap) (var13 Addr) (var14 Addr) (var15 Addr) (var16 Addr) (var17 Addr) (var18 Heap) (var19 Heap) (var20 Int) (var21 Int) (var22 Addr) (var23 Addr) (var24 Heap)) (or (not (and (inv_main999_2 var24 var23 var22) (and (and (and (= var21 0) (and (= var20 0) (and (and (and (and (and (and (= var19 var18) (= var17 var16)) (= var15 var14)) (= var13 (|TSLL::next| (getTSLL (read var18 var14))))) (and (and (and (and (= var12 (newHeap (alloc var24 (O_TSLL var11)))) (= var10 var23)) (= var9 var22)) (= var8 (newAddr (alloc var24 (O_TSLL var11))))) (not (= var7 0)))) (and (and (= var18 (write var12 var9 (O_TSLL (TSLL var8 (|TSLL::opt| (getTSLL (read var12 var9))) (|TSLL::data| (getTSLL (read var12 var9))))))) (= var16 var10)) (= var14 var9))) (and (and (= var6 (write var19 var13 (O_TSLL (TSLL nullAddr (|TSLL::opt| (getTSLL (read var19 var13))) (|TSLL::data| (getTSLL (read var19 var13))))))) (= var5 var17)) (= var4 var13))))) (and (and (= var3 (write var6 var4 (O_TSLL (TSLL (|TSLL::next| (getTSLL (read var6 var4))) (|TSLL::opt| (getTSLL (read var6 var4))) 0)))) (= var2 var5)) (= var1 var4))) (= var0 (write var3 var1 (O_TSLL (TSLL (|TSLL::next| (getTSLL (read var3 var1))) var1 (|TSLL::data| (getTSLL (read var3 var1)))))))))) (inv_main999_2 var0 var2 var1))))
(assert (forall ((var0 Addr) (var1 Heap) (var2 Addr) (var3 Heap) (var4 Addr) (var5 Heap) (var6 Addr) (var7 TSLL) (var8 Heap) (var9 Int) (var10 Addr) (var11 Addr) (var12 Addr) (var13 TSLL) (var14 Heap) (var15 Heap) (var16 Heap)) (or (not (and (inv_main996_2 var16) (and (and (and (and (and (and (= var15 (newHeap (alloc var14 (O_TSLL var13)))) (= var12 var11)) (= var10 (newAddr (alloc var14 (O_TSLL var13))))) (and (not (= var9 0)) (and (and (= var8 (newHeap (alloc var16 (O_TSLL var7)))) (= var6 (newAddr (alloc var16 (O_TSLL var7))))) (and (= var5 (write var8 var6 (O_TSLL (TSLL nullAddr (|TSLL::opt| (getTSLL (read var8 var6))) (|TSLL::data| (getTSLL (read var8 var6))))))) (= var4 var6))))) (and (= var14 (write var5 var4 (O_TSLL (TSLL (|TSLL::next| (getTSLL (read var5 var4))) (|TSLL::opt| (getTSLL (read var5 var4))) 2)))) (= var11 var4))) (and (= var3 (write var15 var12 (O_TSLL (TSLL (|TSLL::next| (getTSLL (read var15 var12))) var10 (|TSLL::data| (getTSLL (read var15 var12))))))) (= var2 var12))) (and (= var1 (write var3 (|TSLL::opt| (getTSLL (read var3 var2))) (O_TSLL (TSLL nullAddr (|TSLL::opt| (getTSLL (read var3 (|TSLL::opt| (getTSLL (read var3 var2)))))) (|TSLL::data| (getTSLL (read var3 (|TSLL::opt| (getTSLL (read var3 var2)))))))))) (= var0 var2))))) (inv_main999_2 var1 var0 var0))))
(assert (forall ((var0 Addr) (var1 Heap) (var2 Addr) (var3 Heap) (var4 Addr) (var5 Heap) (var6 Addr) (var7 TSLL) (var8 Heap) (var9 Int) (var10 Int) (var11 Heap)) (or (not (and (inv_main996_2 var11) (and (and (and (not (= var10 0)) (and (= var9 0) (and (and (= var8 (newHeap (alloc var11 (O_TSLL var7)))) (= var6 (newAddr (alloc var11 (O_TSLL var7))))) (and (= var5 (write var8 var6 (O_TSLL (TSLL nullAddr (|TSLL::opt| (getTSLL (read var8 var6))) (|TSLL::data| (getTSLL (read var8 var6))))))) (= var4 var6))))) (and (= var3 (write var5 var4 (O_TSLL (TSLL (|TSLL::next| (getTSLL (read var5 var4))) (|TSLL::opt| (getTSLL (read var5 var4))) 1)))) (= var2 var4))) (and (= var1 (write var3 var2 (O_TSLL (TSLL (|TSLL::next| (getTSLL (read var3 var2))) var2 (|TSLL::data| (getTSLL (read var3 var2))))))) (= var0 var2))))) (inv_main999_2 var1 var0 var0))))
(assert (forall ((var0 Addr) (var1 Heap) (var2 Addr) (var3 Heap) (var4 Addr) (var5 Heap) (var6 Addr) (var7 TSLL) (var8 Heap) (var9 Int) (var10 Int) (var11 Heap)) (or (not (and (inv_main996_2 var11) (and (and (and (= var10 0) (and (= var9 0) (and (and (= var8 (newHeap (alloc var11 (O_TSLL var7)))) (= var6 (newAddr (alloc var11 (O_TSLL var7))))) (and (= var5 (write var8 var6 (O_TSLL (TSLL nullAddr (|TSLL::opt| (getTSLL (read var8 var6))) (|TSLL::data| (getTSLL (read var8 var6))))))) (= var4 var6))))) (and (= var3 (write var5 var4 (O_TSLL (TSLL (|TSLL::next| (getTSLL (read var5 var4))) (|TSLL::opt| (getTSLL (read var5 var4))) 0)))) (= var2 var4))) (and (= var1 (write var3 var2 (O_TSLL (TSLL (|TSLL::next| (getTSLL (read var3 var2))) var2 (|TSLL::data| (getTSLL (read var3 var2))))))) (= var0 var2))))) (inv_main999_2 var1 var0 var0))))
(assert (forall ((var0 Addr) (var1 Addr) (var2 Heap) (var3 Int) (var4 Addr) (var5 Addr) (var6 Heap)) (or (not (and (inv_main_16 var6 var5 var4) (and (and (not (= var3 2)) (and (and (and (= var2 var6) (= var1 var5)) (= var0 var4)) (= var3 (|TSLL::data| (getTSLL (read var6 var4)))))) (not (= var4 nullAddr))))) (inv_main1007_12 var2 var1 var0))))
(assert (forall ((var0 Addr) (var1 Addr) (var2 Heap) (var3 Addr) (var4 Addr) (var5 Addr) (var6 Heap) (var7 Addr) (var8 Addr) (var9 Heap) (var10 Int) (var11 Int) (var12 Addr) (var13 Addr) (var14 Heap)) (or (not (and (inv_main_16 var14 var13 var12) (and (and (and (= var11 0) (and (and (= var10 2) (and (and (and (= var9 var14) (= var8 var13)) (= var7 var12)) (= var10 (|TSLL::data| (getTSLL (read var14 var12)))))) (and (and (and (= var6 var9) (= var5 var8)) (= var4 var7)) (= var3 (|TSLL::opt| (getTSLL (read var9 var7))))))) (and (and (and (= var2 var6) (= var1 var5)) (= var0 var4)) (or (and (= var3 var4) (= var11 1)) (and (not (= var3 var4)) (= var11 0))))) (not (= var12 nullAddr))))) (inv_main1007_12 var2 var1 var0))))
(assert (forall ((var0 Addr) (var1 Addr) (var2 Heap)) (not (inv_main1007_12 var2 var1 var0))))
(check-sat)
